certificates/rado_a15_c244_N41.cnf
c Rad2 upper bound instance: x1 + 15*x2 - x3 = 244, interval [1,41]
p cnf 41 222
1 12 17 0
-1 -12 -17 0
1 18 27 0
-1 -18 -27 0
2 13 17 0
-2 -13 -17 0
2 18 28 0
-2 -18 -28 0
3 14 17 0
-3 -14 -17 0
3 18 29 0
-3 -18 -29 0
4 15 17 0
-4 -15 -17 0
4 18 30 0
-4 -18 -30 0
1 5 16 0
-1 -5 -16 0
5 16 17 0
-5 -16 -17 0
5 18 31 0
-5 -18 -31 0
2 6 16 0
-2 -6 -16 0
6 17 0
-6 -17 0
6 18 32 0
-6 -18 -32 0
3 7 16 0
-3 -7 -16 0
7 17 18 0
-7 -17 -18 0
7 18 33 0
-7 -18 -33 0
4 8 16 0
-4 -8 -16 0
8 17 19 0
-8 -17 -19 0
8 18 34 0
-8 -18 -34 0
5 9 16 0
-5 -9 -16 0
9 17 20 0
-9 -17 -20 0
9 18 35 0
-9 -18 -35 0
6 10 16 0
-6 -10 -16 0
10 17 21 0
-10 -17 -21 0
10 18 36 0
-10 -18 -36 0
7 11 16 0
-7 -11 -16 0
11 17 22 0
-11 -17 -22 0
11 18 37 0
-11 -18 -37 0
8 12 16 0
-8 -12 -16 0
12 17 23 0
-12 -17 -23 0
12 18 38 0
-12 -18 -38 0
9 13 16 0
-9 -13 -16 0
13 17 24 0
-13 -17 -24 0
13 18 39 0
-13 -18 -39 0
10 14 16 0
-10 -14 -16 0
14 17 25 0
-14 -17 -25 0
14 18 40 0
-14 -18 -40 0
11 15 16 0
-11 -15 -16 0
15 17 26 0
-15 -17 -26 0
15 18 41 0
-15 -18 -41 0
12 16 0
-12 -16 0
16 17 27 0
-16 -17 -27 0
13 16 17 0
-13 -16 -17 0
17 28 0
-17 -28 0
14 16 18 0
-14 -16 -18 0
17 18 29 0
-17 -18 -29 0
15 16 19 0
-15 -16 -19 0
17 19 30 0
-17 -19 -30 0
1 15 20 0
-1 -15 -20 0
16 20 0
-16 -20 0
17 20 31 0
-17 -20 -31 0
2 15 21 0
-2 -15 -21 0
16 17 21 0
-16 -17 -21 0
17 21 32 0
-17 -21 -32 0
3 15 22 0
-3 -15 -22 0
16 18 22 0
-16 -18 -22 0
17 22 33 0
-17 -22 -33 0
4 15 23 0
-4 -15 -23 0
16 19 23 0
-16 -19 -23 0
17 23 34 0
-17 -23 -34 0
5 15 24 0
-5 -15 -24 0
16 20 24 0
-16 -20 -24 0
17 24 35 0
-17 -24 -35 0
6 15 25 0
-6 -15 -25 0
16 21 25 0
-16 -21 -25 0
17 25 36 0
-17 -25 -36 0
7 15 26 0
-7 -15 -26 0
16 22 26 0
-16 -22 -26 0
17 26 37 0
-17 -26 -37 0
8 15 27 0
-8 -15 -27 0
16 23 27 0
-16 -23 -27 0
17 27 38 0
-17 -27 -38 0
9 15 28 0
-9 -15 -28 0
16 24 28 0
-16 -24 -28 0
17 28 39 0
-17 -28 -39 0
10 15 29 0
-10 -15 -29 0
16 25 29 0
-16 -25 -29 0
17 29 40 0
-17 -29 -40 0
11 15 30 0
-11 -15 -30 0
16 26 30 0
-16 -26 -30 0
17 30 41 0
-17 -30 -41 0
12 15 31 0
-12 -15 -31 0
16 27 31 0
-16 -27 -31 0
13 15 32 0
-13 -15 -32 0
16 28 32 0
-16 -28 -32 0
14 15 33 0
-14 -15 -33 0
16 29 33 0
-16 -29 -33 0
15 34 0
-15 -34 0
16 30 34 0
-16 -30 -34 0
1 14 35 0
-1 -14 -35 0
15 16 35 0
-15 -16 -35 0
16 31 35 0
-16 -31 -35 0
2 14 36 0
-2 -14 -36 0
15 17 36 0
-15 -17 -36 0
16 32 36 0
-16 -32 -36 0
3 14 37 0
-3 -14 -37 0
15 18 37 0
-15 -18 -37 0
16 33 37 0
-16 -33 -37 0
4 14 38 0
-4 -14 -38 0
15 19 38 0
-15 -19 -38 0
16 34 38 0
-16 -34 -38 0
5 14 39 0
-5 -14 -39 0
15 20 39 0
-15 -20 -39 0
16 35 39 0
-16 -35 -39 0
6 14 40 0
-6 -14 -40 0
15 21 40 0
-15 -21 -40 0
16 36 40 0
-16 -36 -40 0
7 14 41 0
-7 -14 -41 0
15 22 41 0
-15 -22 -41 0
16 37 41 0
-16 -37 -41 0
