certificates/rado_a15_c244_N41.drat
-37 -38 -41 0
18 37 -39 0
-38 -39 -41 0
-18 -39 -40 -41 0
-39 -40 -41 0
d -18 -39 -40 -41 0
-37 -40 -41 0
18 37 -41 0
-40 -41 0
d -39 -40 -41 0
37 -41 0
d 18 37 -41 0
-41 0
18 -37 0
11 15 0
d 11 30 15 0
-18 -37 0
d -11 -18 -37 0
-37 0
16 0
-12 0
-20 0
15 0
-34 0
-11 0
-19 0
-35 0
18 0
-22 0
-14 0
17 0
3 0
7 0
1 0
-6 0
-28 0
-4 0
-26 0
-36 0
-29 0
0
